c File: flat200_3_0.col
c
c SOURCE: Joseph Culberson (joe@cs.ualberta.ca)
c DESCRIPTION: Quasi-random coloring problem
c              generated with flatness = 0
c                             probability = 0.036
c                             known coloring = 3
c                             random seed = 1089
c              Creation Date:  Wed Feb 24 10:40:19 1999
c Maximum degree = 8 Minimum degree = 0
c COLOR VERIFICATION: Using the permuted order
c under simple greedy yields the specified
c coloring number
c Color = 3 specified partitions = 3
c p edge 200 479
c cnf created by edge2cnf
p cnf 600 2237
-1 -2 0
-1 -3 0
-2 -3 0
1 2 3 0
-4 -5 0
-4 -6 0
-5 -6 0
4 5 6 0
-7 -8 0
-7 -9 0
-8 -9 0
7 8 9 0
-10 -11 0
-10 -12 0
-11 -12 0
10 11 12 0
-13 -14 0
-13 -15 0
-14 -15 0
13 14 15 0
-16 -17 0
-16 -18 0
-17 -18 0
16 17 18 0
-19 -20 0
-19 -21 0
-20 -21 0
19 20 21 0
-22 -23 0
-22 -24 0
-23 -24 0
22 23 24 0
-25 -26 0
-25 -27 0
-26 -27 0
25 26 27 0
-28 -29 0
-28 -30 0
-29 -30 0
28 29 30 0
-31 -32 0
-31 -33 0
-32 -33 0
31 32 33 0
-34 -35 0
-34 -36 0
-35 -36 0
34 35 36 0
-37 -38 0
-37 -39 0
-38 -39 0
37 38 39 0
-40 -41 0
-40 -42 0
-41 -42 0
40 41 42 0
-43 -44 0
-43 -45 0
-44 -45 0
43 44 45 0
-46 -47 0
-46 -48 0
-47 -48 0
46 47 48 0
-49 -50 0
-49 -51 0
-50 -51 0
49 50 51 0
-52 -53 0
-52 -54 0
-53 -54 0
52 53 54 0
-55 -56 0
-55 -57 0
-56 -57 0
55 56 57 0
-58 -59 0
-58 -60 0
-59 -60 0
58 59 60 0
-61 -62 0
-61 -63 0
-62 -63 0
61 62 63 0
-64 -65 0
-64 -66 0
-65 -66 0
64 65 66 0
-67 -68 0
-67 -69 0
-68 -69 0
67 68 69 0
-70 -71 0
-70 -72 0
-71 -72 0
70 71 72 0
-73 -74 0
-73 -75 0
-74 -75 0
73 74 75 0
-76 -77 0
-76 -78 0
-77 -78 0
76 77 78 0
-79 -80 0
-79 -81 0
-80 -81 0
79 80 81 0
-82 -83 0
-82 -84 0
-83 -84 0
82 83 84 0
-85 -86 0
-85 -87 0
-86 -87 0
85 86 87 0
-88 -89 0
-88 -90 0
-89 -90 0
88 89 90 0
-91 -92 0
-91 -93 0
-92 -93 0
91 92 93 0
-94 -95 0
-94 -96 0
-95 -96 0
94 95 96 0
-97 -98 0
-97 -99 0
-98 -99 0
97 98 99 0
-100 -101 0
-100 -102 0
-101 -102 0
100 101 102 0
-103 -104 0
-103 -105 0
-104 -105 0
103 104 105 0
-106 -107 0
-106 -108 0
-107 -108 0
106 107 108 0
-109 -110 0
-109 -111 0
-110 -111 0
109 110 111 0
-112 -113 0
-112 -114 0
-113 -114 0
112 113 114 0
-115 -116 0
-115 -117 0
-116 -117 0
115 116 117 0
-118 -119 0
-118 -120 0
-119 -120 0
118 119 120 0
-121 -122 0
-121 -123 0
-122 -123 0
121 122 123 0
-124 -125 0
-124 -126 0
-125 -126 0
124 125 126 0
-127 -128 0
-127 -129 0
-128 -129 0
127 128 129 0
-130 -131 0
-130 -132 0
-131 -132 0
130 131 132 0
-133 -134 0
-133 -135 0
-134 -135 0
133 134 135 0
-136 -137 0
-136 -138 0
-137 -138 0
136 137 138 0
-139 -140 0
-139 -141 0
-140 -141 0
139 140 141 0
-142 -143 0
-142 -144 0
-143 -144 0
142 143 144 0
-145 -146 0
-145 -147 0
-146 -147 0
145 146 147 0
-148 -149 0
-148 -150 0
-149 -150 0
148 149 150 0
-151 -152 0
-151 -153 0
-152 -153 0
151 152 153 0
-154 -155 0
-154 -156 0
-155 -156 0
154 155 156 0
-157 -158 0
-157 -159 0
-158 -159 0
157 158 159 0
-160 -161 0
-160 -162 0
-161 -162 0
160 161 162 0
-163 -164 0
-163 -165 0
-164 -165 0
163 164 165 0
-166 -167 0
-166 -168 0
-167 -168 0
166 167 168 0
-169 -170 0
-169 -171 0
-170 -171 0
169 170 171 0
-172 -173 0
-172 -174 0
-173 -174 0
172 173 174 0
-175 -176 0
-175 -177 0
-176 -177 0
175 176 177 0
-178 -179 0
-178 -180 0
-179 -180 0
178 179 180 0
-181 -182 0
-181 -183 0
-182 -183 0
181 182 183 0
-184 -185 0
-184 -186 0
-185 -186 0
184 185 186 0
-187 -188 0
-187 -189 0
-188 -189 0
187 188 189 0
-190 -191 0
-190 -192 0
-191 -192 0
190 191 192 0
-193 -194 0
-193 -195 0
-194 -195 0
193 194 195 0
-196 -197 0
-196 -198 0
-197 -198 0
196 197 198 0
-199 -200 0
-199 -201 0
-200 -201 0
199 200 201 0
-202 -203 0
-202 -204 0
-203 -204 0
202 203 204 0
-205 -206 0
-205 -207 0
-206 -207 0
205 206 207 0
-208 -209 0
-208 -210 0
-209 -210 0
208 209 210 0
-211 -212 0
-211 -213 0
-212 -213 0
211 212 213 0
-214 -215 0
-214 -216 0
-215 -216 0
214 215 216 0
-217 -218 0
-217 -219 0
-218 -219 0
217 218 219 0
-220 -221 0
-220 -222 0
-221 -222 0
220 221 222 0
-223 -224 0
-223 -225 0
-224 -225 0
223 224 225 0
-226 -227 0
-226 -228 0
-227 -228 0
226 227 228 0
-229 -230 0
-229 -231 0
-230 -231 0
229 230 231 0
-232 -233 0
-232 -234 0
-233 -234 0
232 233 234 0
-235 -236 0
-235 -237 0
-236 -237 0
235 236 237 0
-238 -239 0
-238 -240 0
-239 -240 0
238 239 240 0
-241 -242 0
-241 -243 0
-242 -243 0
241 242 243 0
-244 -245 0
-244 -246 0
-245 -246 0
244 245 246 0
-247 -248 0
-247 -249 0
-248 -249 0
247 248 249 0
-250 -251 0
-250 -252 0
-251 -252 0
250 251 252 0
-253 -254 0
-253 -255 0
-254 -255 0
253 254 255 0
-256 -257 0
-256 -258 0
-257 -258 0
256 257 258 0
-259 -260 0
-259 -261 0
-260 -261 0
259 260 261 0
-262 -263 0
-262 -264 0
-263 -264 0
262 263 264 0
-265 -266 0
-265 -267 0
-266 -267 0
265 266 267 0
-268 -269 0
-268 -270 0
-269 -270 0
268 269 270 0
-271 -272 0
-271 -273 0
-272 -273 0
271 272 273 0
-274 -275 0
-274 -276 0
-275 -276 0
274 275 276 0
-277 -278 0
-277 -279 0
-278 -279 0
277 278 279 0
-280 -281 0
-280 -282 0
-281 -282 0
280 281 282 0
-283 -284 0
-283 -285 0
-284 -285 0
283 284 285 0
-286 -287 0
-286 -288 0
-287 -288 0
286 287 288 0
-289 -290 0
-289 -291 0
-290 -291 0
289 290 291 0
-292 -293 0
-292 -294 0
-293 -294 0
292 293 294 0
-295 -296 0
-295 -297 0
-296 -297 0
295 296 297 0
-298 -299 0
-298 -300 0
-299 -300 0
298 299 300 0
-301 -302 0
-301 -303 0
-302 -303 0
301 302 303 0
-304 -305 0
-304 -306 0
-305 -306 0
304 305 306 0
-307 -308 0
-307 -309 0
-308 -309 0
307 308 309 0
-310 -311 0
-310 -312 0
-311 -312 0
310 311 312 0
-313 -314 0
-313 -315 0
-314 -315 0
313 314 315 0
-316 -317 0
-316 -318 0
-317 -318 0
316 317 318 0
-319 -320 0
-319 -321 0
-320 -321 0
319 320 321 0
-322 -323 0
-322 -324 0
-323 -324 0
322 323 324 0
-325 -326 0
-325 -327 0
-326 -327 0
325 326 327 0
-328 -329 0
-328 -330 0
-329 -330 0
328 329 330 0
-331 -332 0
-331 -333 0
-332 -333 0
331 332 333 0
-334 -335 0
-334 -336 0
-335 -336 0
334 335 336 0
-337 -338 0
-337 -339 0
-338 -339 0
337 338 339 0
-340 -341 0
-340 -342 0
-341 -342 0
340 341 342 0
-343 -344 0
-343 -345 0
-344 -345 0
343 344 345 0
-346 -347 0
-346 -348 0
-347 -348 0
346 347 348 0
-349 -350 0
-349 -351 0
-350 -351 0
349 350 351 0
-352 -353 0
-352 -354 0
-353 -354 0
352 353 354 0
-355 -356 0
-355 -357 0
-356 -357 0
355 356 357 0
-358 -359 0
-358 -360 0
-359 -360 0
358 359 360 0
-361 -362 0
-361 -363 0
-362 -363 0
361 362 363 0
-364 -365 0
-364 -366 0
-365 -366 0
364 365 366 0
-367 -368 0
-367 -369 0
-368 -369 0
367 368 369 0
-370 -371 0
-370 -372 0
-371 -372 0
370 371 372 0
-373 -374 0
-373 -375 0
-374 -375 0
373 374 375 0
-376 -377 0
-376 -378 0
-377 -378 0
376 377 378 0
-379 -380 0
-379 -381 0
-380 -381 0
379 380 381 0
-382 -383 0
-382 -384 0
-383 -384 0
382 383 384 0
-385 -386 0
-385 -387 0
-386 -387 0
385 386 387 0
-388 -389 0
-388 -390 0
-389 -390 0
388 389 390 0
-391 -392 0
-391 -393 0
-392 -393 0
391 392 393 0
-394 -395 0
-394 -396 0
-395 -396 0
394 395 396 0
-397 -398 0
-397 -399 0
-398 -399 0
397 398 399 0
-400 -401 0
-400 -402 0
-401 -402 0
400 401 402 0
-403 -404 0
-403 -405 0
-404 -405 0
403 404 405 0
-406 -407 0
-406 -408 0
-407 -408 0
406 407 408 0
-409 -410 0
-409 -411 0
-410 -411 0
409 410 411 0
-412 -413 0
-412 -414 0
-413 -414 0
412 413 414 0
-415 -416 0
-415 -417 0
-416 -417 0
415 416 417 0
-418 -419 0
-418 -420 0
-419 -420 0
418 419 420 0
-421 -422 0
-421 -423 0
-422 -423 0
421 422 423 0
-424 -425 0
-424 -426 0
-425 -426 0
424 425 426 0
-427 -428 0
-427 -429 0
-428 -429 0
427 428 429 0
-430 -431 0
-430 -432 0
-431 -432 0
430 431 432 0
-433 -434 0
-433 -435 0
-434 -435 0
433 434 435 0
-436 -437 0
-436 -438 0
-437 -438 0
436 437 438 0
-439 -440 0
-439 -441 0
-440 -441 0
439 440 441 0
-442 -443 0
-442 -444 0
-443 -444 0
442 443 444 0
-445 -446 0
-445 -447 0
-446 -447 0
445 446 447 0
-448 -449 0
-448 -450 0
-449 -450 0
448 449 450 0
-451 -452 0
-451 -453 0
-452 -453 0
451 452 453 0
-454 -455 0
-454 -456 0
-455 -456 0
454 455 456 0
-457 -458 0
-457 -459 0
-458 -459 0
457 458 459 0
-460 -461 0
-460 -462 0
-461 -462 0
460 461 462 0
-463 -464 0
-463 -465 0
-464 -465 0
463 464 465 0
-466 -467 0
-466 -468 0
-467 -468 0
466 467 468 0
-469 -470 0
-469 -471 0
-470 -471 0
469 470 471 0
-472 -473 0
-472 -474 0
-473 -474 0
472 473 474 0
-475 -476 0
-475 -477 0
-476 -477 0
475 476 477 0
-478 -479 0
-478 -480 0
-479 -480 0
478 479 480 0
-481 -482 0
-481 -483 0
-482 -483 0
481 482 483 0
-484 -485 0
-484 -486 0
-485 -486 0
484 485 486 0
-487 -488 0
-487 -489 0
-488 -489 0
487 488 489 0
-490 -491 0
-490 -492 0
-491 -492 0
490 491 492 0
-493 -494 0
-493 -495 0
-494 -495 0
493 494 495 0
-496 -497 0
-496 -498 0
-497 -498 0
496 497 498 0
-499 -500 0
-499 -501 0
-500 -501 0
499 500 501 0
-502 -503 0
-502 -504 0
-503 -504 0
502 503 504 0
-505 -506 0
-505 -507 0
-506 -507 0
505 506 507 0
-508 -509 0
-508 -510 0
-509 -510 0
508 509 510 0
-511 -512 0
-511 -513 0
-512 -513 0
511 512 513 0
-514 -515 0
-514 -516 0
-515 -516 0
514 515 516 0
-517 -518 0
-517 -519 0
-518 -519 0
517 518 519 0
-520 -521 0
-520 -522 0
-521 -522 0
520 521 522 0
-523 -524 0
-523 -525 0
-524 -525 0
523 524 525 0
-526 -527 0
-526 -528 0
-527 -528 0
526 527 528 0
-529 -530 0
-529 -531 0
-530 -531 0
529 530 531 0
-532 -533 0
-532 -534 0
-533 -534 0
532 533 534 0
-535 -536 0
-535 -537 0
-536 -537 0
535 536 537 0
-538 -539 0
-538 -540 0
-539 -540 0
538 539 540 0
-541 -542 0
-541 -543 0
-542 -543 0
541 542 543 0
-544 -545 0
-544 -546 0
-545 -546 0
544 545 546 0
-547 -548 0
-547 -549 0
-548 -549 0
547 548 549 0
-550 -551 0
-550 -552 0
-551 -552 0
550 551 552 0
-553 -554 0
-553 -555 0
-554 -555 0
553 554 555 0
-556 -557 0
-556 -558 0
-557 -558 0
556 557 558 0
-559 -560 0
-559 -561 0
-560 -561 0
559 560 561 0
-562 -563 0
-562 -564 0
-563 -564 0
562 563 564 0
-565 -566 0
-565 -567 0
-566 -567 0
565 566 567 0
-568 -569 0
-568 -570 0
-569 -570 0
568 569 570 0
-571 -572 0
-571 -573 0
-572 -573 0
571 572 573 0
-574 -575 0
-574 -576 0
-575 -576 0
574 575 576 0
-577 -578 0
-577 -579 0
-578 -579 0
577 578 579 0
-580 -581 0
-580 -582 0
-581 -582 0
580 581 582 0
-583 -584 0
-583 -585 0
-584 -585 0
583 584 585 0
-586 -587 0
-586 -588 0
-587 -588 0
586 587 588 0
-589 -590 0
-589 -591 0
-590 -591 0
589 590 591 0
-592 -593 0
-592 -594 0
-593 -594 0
592 593 594 0
-595 -596 0
-595 -597 0
-596 -597 0
595 596 597 0
-598 -599 0
-598 -600 0
-599 -600 0
598 599 600 0
-208 -1 0
-209 -2 0
-210 -3 0
-274 -1 0
-275 -2 0
-276 -3 0
-295 -1 0
-296 -2 0
-297 -3 0
-259 -4 0
-260 -5 0
-261 -6 0
-466 -4 0
-467 -5 0
-468 -6 0
-568 -4 0
-569 -5 0
-570 -6 0
-595 -4 0
-596 -5 0
-597 -6 0
-58 -7 0
-59 -8 0
-60 -9 0
-253 -7 0
-254 -8 0
-255 -9 0
-388 -7 0
-389 -8 0
-390 -9 0
-439 -7 0
-440 -8 0
-441 -9 0
-556 -7 0
-557 -8 0
-558 -9 0
-28 -10 0
-29 -11 0
-30 -12 0
-172 -10 0
-173 -11 0
-174 -12 0
-181 -10 0
-182 -11 0
-183 -12 0
-214 -10 0
-215 -11 0
-216 -12 0
-502 -10 0
-503 -11 0
-504 -12 0
-541 -10 0
-542 -11 0
-543 -12 0
-577 -10 0
-578 -11 0
-579 -12 0
-586 -10 0
-587 -11 0
-588 -12 0
-43 -13 0
-44 -14 0
-45 -15 0
-175 -13 0
-176 -14 0
-177 -15 0
-238 -13 0
-239 -14 0
-240 -15 0
-262 -13 0
-263 -14 0
-264 -15 0
-367 -13 0
-368 -14 0
-369 -15 0
-415 -13 0
-416 -14 0
-417 -15 0
-430 -13 0
-431 -14 0
-432 -15 0
-520 -13 0
-521 -14 0
-522 -15 0
-280 -16 0
-281 -17 0
-282 -18 0
-481 -16 0
-482 -17 0
-483 -18 0
-37 -19 0
-38 -20 0
-39 -21 0
-94 -19 0
-95 -20 0
-96 -21 0
-145 -19 0
-146 -20 0
-147 -21 0
-253 -19 0
-254 -20 0
-255 -21 0
-274 -19 0
-275 -20 0
-276 -21 0
-283 -19 0
-284 -20 0
-285 -21 0
-355 -19 0
-356 -20 0
-357 -21 0
-427 -19 0
-428 -20 0
-429 -21 0
-28 -22 0
-29 -23 0
-30 -24 0
-136 -22 0
-137 -23 0
-138 -24 0
-154 -22 0
-155 -23 0
-156 -24 0
-211 -22 0
-212 -23 0
-213 -24 0
-463 -22 0
-464 -23 0
-465 -24 0
-511 -22 0
-512 -23 0
-513 -24 0
-115 -25 0
-116 -26 0
-117 -27 0
-262 -25 0
-263 -26 0
-264 -27 0
-310 -25 0
-311 -26 0
-312 -27 0
-337 -25 0
-338 -26 0
-339 -27 0
-220 -28 0
-221 -29 0
-222 -30 0
-292 -28 0
-293 -29 0
-294 -30 0
-91 -31 0
-92 -32 0
-93 -33 0
-124 -31 0
-125 -32 0
-126 -33 0
-202 -31 0
-203 -32 0
-204 -33 0
-388 -34 0
-389 -35 0
-390 -36 0
-454 -34 0
-455 -35 0
-456 -36 0
-100 -37 0
-101 -38 0
-102 -39 0
-310 -37 0
-311 -38 0
-312 -39 0
-532 -37 0
-533 -38 0
-534 -39 0
-571 -37 0
-572 -38 0
-573 -39 0
-256 -40 0
-257 -41 0
-258 -42 0
-292 -40 0
-293 -41 0
-294 -42 0
-598 -40 0
-599 -41 0
-600 -42 0
-169 -43 0
-170 -44 0
-171 -45 0
-196 -43 0
-197 -44 0
-198 -45 0
-244 -43 0
-245 -44 0
-246 -45 0
-361 -43 0
-362 -44 0
-363 -45 0
-412 -43 0
-413 -44 0
-414 -45 0
-427 -43 0
-428 -44 0
-429 -45 0
-535 -43 0
-536 -44 0
-537 -45 0
-64 -46 0
-65 -47 0
-66 -48 0
-232 -46 0
-233 -47 0
-234 -48 0
-340 -46 0
-341 -47 0
-342 -48 0
-508 -46 0
-509 -47 0
-510 -48 0
-571 -46 0
-572 -47 0
-573 -48 0
-586 -46 0
-587 -47 0
-588 -48 0
-409 -49 0
-410 -50 0
-411 -51 0
-121 -52 0
-122 -53 0
-123 -54 0
-157 -52 0
-158 -53 0
-159 -54 0
-592 -52 0
-593 -53 0
-594 -54 0
-133 -55 0
-134 -56 0
-135 -57 0
-217 -55 0
-218 -56 0
-219 -57 0
-385 -55 0
-386 -56 0
-387 -57 0
-445 -55 0
-446 -56 0
-447 -57 0
-454 -55 0
-455 -56 0
-456 -57 0
-562 -55 0
-563 -56 0
-564 -57 0
-568 -55 0
-569 -56 0
-570 -57 0
-580 -55 0
-581 -56 0
-582 -57 0
-133 -58 0
-134 -59 0
-135 -60 0
-502 -58 0
-503 -59 0
-504 -60 0
-121 -61 0
-122 -62 0
-123 -63 0
-244 -61 0
-245 -62 0
-246 -63 0
-253 -61 0
-254 -62 0
-255 -63 0
-484 -61 0
-485 -62 0
-486 -63 0
-523 -61 0
-524 -62 0
-525 -63 0
-541 -61 0
-542 -62 0
-543 -63 0
-175 -64 0
-176 -65 0
-177 -66 0
-184 -64 0
-185 -65 0
-186 -66 0
-304 -64 0
-305 -65 0
-306 -66 0
-94 -67 0
-95 -68 0
-96 -69 0
-127 -67 0
-128 -68 0
-129 -69 0
-217 -67 0
-218 -68 0
-219 -69 0
-247 -67 0
-248 -68 0
-249 -69 0
-337 -67 0
-338 -68 0
-339 -69 0
-406 -67 0
-407 -68 0
-408 -69 0
-502 -67 0
-503 -68 0
-504 -69 0
-526 -67 0
-527 -68 0
-528 -69 0
-319 -70 0
-320 -71 0
-321 -72 0
-496 -70 0
-497 -71 0
-498 -72 0
-127 -73 0
-128 -74 0
-129 -75 0
-154 -73 0
-155 -74 0
-156 -75 0
-226 -73 0
-227 -74 0
-228 -75 0
-364 -73 0
-365 -74 0
-366 -75 0
-406 -73 0
-407 -74 0
-408 -75 0
-154 -76 0
-155 -77 0
-156 -78 0
-160 -76 0
-161 -77 0
-162 -78 0
-250 -76 0
-251 -77 0
-252 -78 0
-253 -76 0
-254 -77 0
-255 -78 0
-271 -76 0
-272 -77 0
-273 -78 0
-553 -76 0
-554 -77 0
-555 -78 0
-574 -76 0
-575 -77 0
-576 -78 0
-172 -79 0
-173 -80 0
-174 -81 0
-352 -79 0
-353 -80 0
-354 -81 0
-415 -79 0
-416 -80 0
-417 -81 0
-445 -79 0
-446 -80 0
-447 -81 0
-268 -82 0
-269 -83 0
-270 -84 0
-286 -82 0
-287 -83 0
-288 -84 0
-331 -82 0
-332 -83 0
-333 -84 0
-463 -82 0
-464 -83 0
-465 -84 0
-490 -82 0
-491 -83 0
-492 -84 0
-130 -85 0
-131 -86 0
-132 -87 0
-136 -85 0
-137 -86 0
-138 -87 0
-241 -85 0
-242 -86 0
-243 -87 0
-130 -88 0
-131 -89 0
-132 -90 0
-133 -88 0
-134 -89 0
-135 -90 0
-136 -88 0
-137 -89 0
-138 -90 0
-331 -88 0
-332 -89 0
-333 -90 0
-430 -88 0
-431 -89 0
-432 -90 0
-484 -88 0
-485 -89 0
-486 -90 0
-241 -91 0
-242 -92 0
-243 -93 0
-358 -91 0
-359 -92 0
-360 -93 0
-541 -91 0
-542 -92 0
-543 -93 0
-565 -91 0
-566 -92 0
-567 -93 0
-178 -94 0
-179 -95 0
-180 -96 0
-286 -94 0
-287 -95 0
-288 -96 0
-448 -94 0
-449 -95 0
-450 -96 0
-187 -97 0
-188 -98 0
-189 -99 0
-322 -97 0
-323 -98 0
-324 -99 0
-349 -97 0
-350 -98 0
-351 -99 0
-355 -97 0
-356 -98 0
-357 -99 0
-115 -100 0
-116 -101 0
-117 -102 0
-313 -100 0
-314 -101 0
-315 -102 0
-166 -103 0
-167 -104 0
-168 -105 0
-220 -103 0
-221 -104 0
-222 -105 0
-403 -103 0
-404 -104 0
-405 -105 0
-133 -106 0
-134 -107 0
-135 -108 0
-145 -106 0
-146 -107 0
-147 -108 0
-289 -106 0
-290 -107 0
-291 -108 0
-553 -106 0
-554 -107 0
-555 -108 0
-127 -109 0
-128 -110 0
-129 -111 0
-145 -109 0
-146 -110 0
-147 -111 0
-208 -109 0
-209 -110 0
-210 -111 0
-379 -109 0
-380 -110 0
-381 -111 0
-463 -109 0
-464 -110 0
-465 -111 0
-166 -112 0
-167 -113 0
-168 -114 0
-214 -112 0
-215 -113 0
-216 -114 0
-265 -112 0
-266 -113 0
-267 -114 0
-376 -112 0
-377 -113 0
-378 -114 0
-457 -112 0
-458 -113 0
-459 -114 0
-553 -112 0
-554 -113 0
-555 -114 0
-250 -115 0
-251 -116 0
-252 -117 0
-349 -115 0
-350 -116 0
-351 -117 0
-373 -115 0
-374 -116 0
-375 -117 0
-130 -118 0
-131 -119 0
-132 -120 0
-367 -118 0
-368 -119 0
-369 -120 0
-220 -121 0
-221 -122 0
-222 -123 0
-319 -121 0
-320 -122 0
-321 -123 0
-352 -121 0
-353 -122 0
-354 -123 0
-409 -121 0
-410 -122 0
-411 -123 0
-226 -124 0
-227 -125 0
-228 -126 0
-319 -124 0
-320 -125 0
-321 -126 0
-403 -124 0
-404 -125 0
-405 -126 0
-490 -124 0
-491 -125 0
-492 -126 0
-223 -127 0
-224 -128 0
-225 -129 0
-244 -127 0
-245 -128 0
-246 -129 0
-364 -127 0
-365 -128 0
-366 -129 0
-529 -130 0
-530 -131 0
-531 -132 0
-262 -133 0
-263 -134 0
-264 -135 0
-577 -133 0
-578 -134 0
-579 -135 0
-505 -136 0
-506 -137 0
-507 -138 0
-553 -136 0
-554 -137 0
-555 -138 0
-571 -136 0
-572 -137 0
-573 -138 0
-223 -139 0
-224 -140 0
-225 -141 0
-544 -139 0
-545 -140 0
-546 -141 0
-547 -139 0
-548 -140 0
-549 -141 0
-598 -139 0
-599 -140 0
-600 -141 0
-535 -142 0
-536 -143 0
-537 -144 0
-583 -142 0
-584 -143 0
-585 -144 0
-175 -145 0
-176 -146 0
-177 -147 0
-217 -145 0
-218 -146 0
-219 -147 0
-460 -145 0
-461 -146 0
-462 -147 0
-346 -148 0
-347 -149 0
-348 -150 0
-367 -148 0
-368 -149 0
-369 -150 0
-373 -148 0
-374 -149 0
-375 -150 0
-448 -148 0
-449 -149 0
-450 -150 0
-472 -148 0
-473 -149 0
-474 -150 0
-157 -151 0
-158 -152 0
-159 -153 0
-208 -151 0
-209 -152 0
-210 -153 0
-376 -151 0
-377 -152 0
-378 -153 0
-382 -151 0
-383 -152 0
-384 -153 0
-409 -151 0
-410 -152 0
-411 -153 0
-481 -151 0
-482 -152 0
-483 -153 0
-547 -151 0
-548 -152 0
-549 -153 0
-571 -151 0
-572 -152 0
-573 -153 0
-301 -154 0
-302 -155 0
-303 -156 0
-421 -154 0
-422 -155 0
-423 -156 0
-526 -157 0
-527 -158 0
-528 -159 0
-442 -160 0
-443 -161 0
-444 -162 0
-367 -163 0
-368 -164 0
-369 -165 0
-394 -163 0
-395 -164 0
-396 -165 0
-409 -163 0
-410 -164 0
-411 -165 0
-454 -163 0
-455 -164 0
-456 -165 0
-532 -163 0
-533 -164 0
-534 -165 0
-283 -166 0
-284 -167 0
-285 -168 0
-385 -166 0
-386 -167 0
-387 -168 0
-508 -166 0
-509 -167 0
-510 -168 0
-238 -172 0
-239 -173 0
-240 -174 0
-250 -172 0
-251 -173 0
-252 -174 0
-325 -172 0
-326 -173 0
-327 -174 0
-334 -172 0
-335 -173 0
-336 -174 0
-364 -172 0
-365 -173 0
-366 -174 0
-331 -175 0
-332 -176 0
-333 -177 0
-340 -175 0
-341 -176 0
-342 -177 0
-430 -175 0
-431 -176 0
-432 -177 0
-457 -175 0
-458 -176 0
-459 -177 0
-559 -175 0
-560 -176 0
-561 -177 0
-223 -178 0
-224 -179 0
-225 -180 0
-319 -181 0
-320 -182 0
-321 -183 0
-376 -181 0
-377 -182 0
-378 -183 0
-544 -181 0
-545 -182 0
-546 -183 0
-220 -184 0
-221 -185 0
-222 -186 0
-265 -184 0
-266 -185 0
-267 -186 0
-343 -184 0
-344 -185 0
-345 -186 0
-493 -184 0
-494 -185 0
-495 -186 0
-250 -187 0
-251 -188 0
-252 -189 0
-559 -187 0
-560 -188 0
-561 -189 0
-574 -187 0
-575 -188 0
-576 -189 0
-289 -193 0
-290 -194 0
-291 -195 0
-298 -193 0
-299 -194 0
-300 -195 0
-448 -193 0
-449 -194 0
-450 -195 0
-487 -193 0
-488 -194 0
-489 -195 0
-226 -196 0
-227 -197 0
-228 -198 0
-373 -196 0
-374 -197 0
-375 -198 0
-448 -196 0
-449 -197 0
-450 -198 0
-568 -199 0
-569 -200 0
-570 -201 0
-325 -202 0
-326 -203 0
-327 -204 0
-346 -202 0
-347 -203 0
-348 -204 0
-430 -202 0
-431 -203 0
-432 -204 0
-448 -202 0
-449 -203 0
-450 -204 0
-274 -205 0
-275 -206 0
-276 -207 0
-553 -205 0
-554 -206 0
-555 -207 0
-445 -211 0
-446 -212 0
-447 -213 0
-448 -211 0
-449 -212 0
-450 -213 0
-274 -214 0
-275 -215 0
-276 -216 0
-286 -214 0
-287 -215 0
-288 -216 0
-295 -214 0
-296 -215 0
-297 -216 0
-541 -217 0
-542 -218 0
-543 -219 0
-595 -217 0
-596 -218 0
-597 -219 0
-484 -220 0
-485 -221 0
-486 -222 0
-586 -220 0
-587 -221 0
-588 -222 0
-271 -223 0
-272 -224 0
-273 -225 0
-352 -223 0
-353 -224 0
-354 -225 0
-580 -223 0
-581 -224 0
-582 -225 0
-583 -223 0
-584 -224 0
-585 -225 0
-229 -226 0
-230 -227 0
-231 -228 0
-283 -226 0
-284 -227 0
-285 -228 0
-247 -229 0
-248 -230 0
-249 -231 0
-352 -229 0
-353 -230 0
-354 -231 0
-364 -229 0
-365 -230 0
-366 -231 0
-385 -229 0
-386 -230 0
-387 -231 0
-457 -229 0
-458 -230 0
-459 -231 0
-562 -229 0
-563 -230 0
-564 -231 0
-466 -232 0
-467 -233 0
-468 -234 0
-241 -235 0
-242 -236 0
-243 -237 0
-247 -235 0
-248 -236 0
-249 -237 0
-268 -235 0
-269 -236 0
-270 -237 0
-409 -235 0
-410 -236 0
-411 -237 0
-433 -235 0
-434 -236 0
-435 -237 0
-442 -235 0
-443 -236 0
-444 -237 0
-460 -235 0
-461 -236 0
-462 -237 0
-373 -238 0
-374 -239 0
-375 -240 0
-532 -238 0
-533 -239 0
-534 -240 0
-559 -238 0
-560 -239 0
-561 -240 0
-268 -241 0
-269 -242 0
-270 -243 0
-439 -241 0
-440 -242 0
-441 -243 0
-322 -244 0
-323 -245 0
-324 -246 0
-355 -244 0
-356 -245 0
-357 -246 0
-595 -244 0
-596 -245 0
-597 -246 0
-391 -247 0
-392 -248 0
-393 -249 0
-424 -247 0
-425 -248 0
-426 -249 0
-538 -247 0
-539 -248 0
-540 -249 0
-547 -247 0
-548 -248 0
-549 -249 0
-562 -247 0
-563 -248 0
-564 -249 0
-298 -253 0
-299 -254 0
-300 -255 0
-298 -256 0
-299 -257 0
-300 -258 0
-334 -256 0
-335 -257 0
-336 -258 0
-355 -259 0
-356 -260 0
-357 -261 0
-559 -259 0
-560 -260 0
-561 -261 0
-328 -262 0
-329 -263 0
-330 -264 0
-412 -262 0
-413 -263 0
-414 -264 0
-547 -262 0
-548 -263 0
-549 -264 0
-544 -265 0
-545 -266 0
-546 -267 0
-565 -265 0
-566 -266 0
-567 -267 0
-595 -265 0
-596 -266 0
-597 -267 0
-301 -268 0
-302 -269 0
-303 -270 0
-397 -268 0
-398 -269 0
-399 -270 0
-577 -268 0
-578 -269 0
-579 -270 0
-382 -271 0
-383 -272 0
-384 -273 0
-514 -271 0
-515 -272 0
-516 -273 0
-307 -274 0
-308 -275 0
-309 -276 0
-349 -274 0
-350 -275 0
-351 -276 0
-493 -274 0
-494 -275 0
-495 -276 0
-499 -274 0
-500 -275 0
-501 -276 0
-430 -277 0
-431 -278 0
-432 -279 0
-550 -277 0
-551 -278 0
-552 -279 0
-310 -280 0
-311 -281 0
-312 -282 0
-322 -280 0
-323 -281 0
-324 -282 0
-496 -280 0
-497 -281 0
-498 -282 0
-523 -280 0
-524 -281 0
-525 -282 0
-319 -283 0
-320 -284 0
-321 -285 0
-427 -283 0
-428 -284 0
-429 -285 0
-325 -286 0
-326 -287 0
-327 -288 0
-391 -286 0
-392 -287 0
-393 -288 0
-442 -286 0
-443 -287 0
-444 -288 0
-478 -286 0
-479 -287 0
-480 -288 0
-529 -286 0
-530 -287 0
-531 -288 0
-406 -289 0
-407 -290 0
-408 -291 0
-520 -289 0
-521 -290 0
-522 -291 0
-550 -289 0
-551 -290 0
-552 -291 0
-571 -289 0
-572 -290 0
-573 -291 0
-340 -292 0
-341 -293 0
-342 -294 0
-346 -292 0
-347 -293 0
-348 -294 0
-481 -292 0
-482 -293 0
-483 -294 0
-487 -292 0
-488 -293 0
-489 -294 0
-586 -292 0
-587 -293 0
-588 -294 0
-298 -295 0
-299 -296 0
-300 -297 0
-379 -295 0
-380 -296 0
-381 -297 0
-436 -295 0
-437 -296 0
-438 -297 0
-358 -301 0
-359 -302 0
-360 -303 0
-418 -301 0
-419 -302 0
-420 -303 0
-505 -301 0
-506 -302 0
-507 -303 0
-577 -301 0
-578 -302 0
-579 -303 0
-484 -304 0
-485 -305 0
-486 -306 0
-541 -304 0
-542 -305 0
-543 -306 0
-334 -307 0
-335 -308 0
-336 -309 0
-472 -307 0
-473 -308 0
-474 -309 0
-544 -307 0
-545 -308 0
-546 -309 0
-418 -310 0
-419 -311 0
-420 -312 0
-355 -313 0
-356 -314 0
-357 -315 0
-370 -313 0
-371 -314 0
-372 -315 0
-394 -313 0
-395 -314 0
-396 -315 0
-496 -313 0
-497 -314 0
-498 -315 0
-424 -316 0
-425 -317 0
-426 -318 0
-490 -319 0
-491 -320 0
-492 -321 0
-538 -319 0
-539 -320 0
-540 -321 0
-451 -322 0
-452 -323 0
-453 -324 0
-538 -322 0
-539 -323 0
-540 -324 0
-433 -325 0
-434 -326 0
-435 -327 0
-448 -325 0
-449 -326 0
-450 -327 0
-520 -325 0
-521 -326 0
-522 -327 0
-418 -328 0
-419 -329 0
-420 -330 0
-337 -331 0
-338 -332 0
-339 -333 0
-466 -331 0
-467 -332 0
-468 -333 0
-544 -331 0
-545 -332 0
-546 -333 0
-571 -331 0
-572 -332 0
-573 -333 0
-583 -331 0
-584 -332 0
-585 -333 0
-352 -334 0
-353 -335 0
-354 -336 0
-418 -334 0
-419 -335 0
-420 -336 0
-505 -334 0
-506 -335 0
-507 -336 0
-460 -337 0
-461 -338 0
-462 -339 0
-346 -340 0
-347 -341 0
-348 -342 0
-469 -340 0
-470 -341 0
-471 -342 0
-559 -340 0
-560 -341 0
-561 -342 0
-373 -343 0
-374 -344 0
-375 -345 0
-499 -343 0
-500 -344 0
-501 -345 0
-385 -349 0
-386 -350 0
-387 -351 0
-472 -352 0
-473 -353 0
-474 -354 0
-544 -352 0
-545 -353 0
-546 -354 0
-367 -355 0
-368 -356 0
-369 -357 0
-379 -355 0
-380 -356 0
-381 -357 0
-406 -358 0
-407 -359 0
-408 -360 0
-472 -358 0
-473 -359 0
-474 -360 0
-499 -358 0
-500 -359 0
-501 -360 0
-586 -358 0
-587 -359 0
-588 -360 0
-394 -361 0
-395 -362 0
-396 -363 0
-415 -361 0
-416 -362 0
-417 -363 0
-568 -361 0
-569 -362 0
-570 -363 0
-391 -364 0
-392 -365 0
-393 -366 0
-403 -367 0
-404 -368 0
-405 -369 0
-424 -367 0
-425 -368 0
-426 -369 0
-583 -373 0
-584 -374 0
-585 -375 0
-412 -376 0
-413 -377 0
-414 -378 0
-466 -376 0
-467 -377 0
-468 -378 0
-388 -382 0
-389 -383 0
-390 -384 0
-475 -382 0
-476 -383 0
-477 -384 0
-505 -382 0
-506 -383 0
-507 -384 0
-595 -382 0
-596 -383 0
-597 -384 0
-442 -385 0
-443 -386 0
-444 -387 0
-502 -385 0
-503 -386 0
-504 -387 0
-463 -388 0
-464 -389 0
-465 -390 0
-481 -391 0
-482 -392 0
-483 -393 0
-451 -394 0
-452 -395 0
-453 -396 0
-598 -394 0
-599 -395 0
-600 -396 0
-508 -397 0
-509 -398 0
-510 -399 0
-523 -397 0
-524 -398 0
-525 -399 0
-406 -400 0
-407 -401 0
-408 -402 0
-424 -400 0
-425 -401 0
-426 -402 0
-517 -400 0
-518 -401 0
-519 -402 0
-520 -400 0
-521 -401 0
-522 -402 0
-499 -403 0
-500 -404 0
-501 -405 0
-553 -403 0
-554 -404 0
-555 -405 0
-598 -409 0
-599 -410 0
-600 -411 0
-457 -412 0
-458 -413 0
-459 -414 0
-451 -415 0
-452 -416 0
-453 -417 0
-520 -415 0
-521 -416 0
-522 -417 0
-571 -415 0
-572 -416 0
-573 -417 0
-502 -421 0
-503 -422 0
-504 -423 0
-529 -421 0
-530 -422 0
-531 -423 0
-532 -421 0
-533 -422 0
-534 -423 0
-535 -424 0
-536 -425 0
-537 -426 0
-502 -427 0
-503 -428 0
-504 -429 0
-550 -427 0
-551 -428 0
-552 -429 0
-484 -430 0
-485 -431 0
-486 -432 0
-490 -433 0
-491 -434 0
-492 -435 0
-499 -433 0
-500 -434 0
-501 -435 0
-460 -436 0
-461 -437 0
-462 -438 0
-535 -436 0
-536 -437 0
-537 -438 0
-538 -436 0
-539 -437 0
-540 -438 0
-541 -439 0
-542 -440 0
-543 -441 0
-589 -439 0
-590 -440 0
-591 -441 0
-454 -442 0
-455 -443 0
-456 -444 0
-463 -442 0
-464 -443 0
-465 -444 0
-481 -442 0
-482 -443 0
-483 -444 0
-493 -442 0
-494 -443 0
-495 -444 0
-505 -445 0
-506 -446 0
-507 -447 0
-553 -445 0
-554 -446 0
-555 -447 0
-586 -445 0
-587 -446 0
-588 -447 0
-472 -448 0
-473 -449 0
-474 -450 0
-541 -454 0
-542 -455 0
-543 -456 0
-466 -457 0
-467 -458 0
-468 -459 0
-577 -457 0
-578 -458 0
-579 -459 0
-529 -466 0
-530 -467 0
-531 -468 0
-514 -472 0
-515 -473 0
-516 -474 0
-478 -475 0
-479 -476 0
-480 -477 0
-481 -475 0
-482 -476 0
-483 -477 0
-508 -475 0
-509 -476 0
-510 -477 0
-574 -475 0
-575 -476 0
-576 -477 0
-574 -478 0
-575 -479 0
-576 -480 0
-556 -484 0
-557 -485 0
-558 -486 0
-520 -487 0
-521 -488 0
-522 -489 0
-535 -487 0
-536 -488 0
-537 -489 0
-592 -490 0
-593 -491 0
-594 -492 0
-517 -493 0
-518 -494 0
-519 -495 0
-532 -496 0
-533 -497 0
-534 -498 0
-550 -499 0
-551 -500 0
-552 -501 0
-544 -502 0
-545 -503 0
-546 -504 0
-565 -502 0
-566 -503 0
-567 -504 0
-565 -505 0
-566 -506 0
-567 -507 0
-565 -508 0
-566 -509 0
-567 -510 0
-520 -511 0
-521 -512 0
-522 -513 0
-592 -511 0
-593 -512 0
-594 -513 0
-523 -514 0
-524 -515 0
-525 -516 0
-523 -517 0
-524 -518 0
-525 -519 0
-559 -520 0
-560 -521 0
-561 -522 0
-565 -526 0
-566 -527 0
-567 -528 0
-544 -535 0
-545 -536 0
-546 -537 0
-580 -535 0
-581 -536 0
-582 -537 0
-568 -556 0
-569 -557 0
-570 -558 0
-589 -556 0
-590 -557 0
-591 -558 0
-580 -565 0
-581 -566 0
-582 -567 0
